-285.0 1.0 9.0 10.0 1.0 5.0 8.0 2.0 3.0 7.0 6.0 0.0 4.0 0.0 9.0 9.0 1.0 6.0 6.0 2.0 0.0 5.0 3.0 5.0 1.0 6.0 9.0 2.0 5.0 7.0 1.0 4.0 1.0 10.0 7.0 10.0 5.0 3.0 0.0 10.0 9.0 8.0 8.0 9.0 10.0 0.0 9.0 4.0 6.0 7.0 9.0 3.0 7.0 6.0 4.0 3.0 
1.0 -269.0 7.0 5.0 1.0 2.0 1.0 6.0 6.0 1.0 3.0 7.0 9.0 5.0 9.0 8.0 2.0 7.0 1.0 9.0 7.0 10.0 3.0 10.0 8.0 8.0 5.0 2.0 2.0 1.0 7.0 6.0 8.0 2.0 4.0 8.0 6.0 2.0 8.0 4.0 5.0 7.0 7.0 8.0 9.0 2.0 4.0 6.0 10.0 2.0 5.0 3.0 0.0 0.0 0.0 0.0 
9.0 7.0 -300.0 8.0 2.0 8.0 10.0 5.0 0.0 1.0 9.0 0.0 8.0 4.0 9.0 1.0 8.0 9.0 4.0 7.0 2.0 5.0 9.0 2.0 7.0 6.0 7.0 9.0 1.0 3.0 9.0 8.0 3.0 6.0 1.0 2.0 5.0 4.0 6.0 3.0 6.0 3.0 10.0 6.0 4.0 10.0 9.0 6.0 0.0 8.0 6.0 3.0 6.0 9.0 3.0 4.0 
10.0 5.0 8.0 -301.0 5.0 10.0 9.0 9.0 7.0 6.0 2.0 7.0 10.0 3.0 8.0 10.0 10.0 3.0 6.0 1.0 9.0 3.0 6.0 9.0 5.0 8.0 4.0 0.0 2.0 6.0 10.0 10.0 2.0 9.0 8.0 8.0 3.0 0.0 6.0 0.0 0.0 0.0 4.0 8.0 6.0 4.0 0.0 9.0 0.0 7.0 6.0 5.0 4.0 0.0 8.0 3.0 
1.0 1.0 2.0 5.0 -286.0 4.0 0.0 5.0 5.0 4.0 4.0 7.0 8.0 8.0 4.0 7.0 10.0 10.0 5.0 2.0 7.0 8.0 10.0 4.0 9.0 9.0 0.0 5.0 4.0 2.0 4.0 0.0 9.0 1.0 9.0 1.0 10.0 5.0 8.0 9.0 10.0 2.0 2.0 10.0 10.0 6.0 1.0 10.0 4.0 1.0 0.0 8.0 4.0 5.0 2.0 5.0 
5.0 2.0 8.0 10.0 4.0 -277.0 4.0 3.0 4.0 3.0 7.0 4.0 7.0 0.0 10.0 7.0 0.0 3.0 4.0 1.0 9.0 3.0 7.0 6.0 0.0 9.0 8.0 6.0 5.0 0.0 9.0 7.0 9.0 9.0 8.0 2.0 0.0 7.0 2.0 10.0 4.0 9.0 0.0 10.0 7.0 7.0 0.0 7.0 1.0 0.0 5.0 4.0 1.0 6.0 5.0 9.0 
8.0 1.0 10.0 9.0 0.0 4.0 -261.0 1.0 0.0 1.0 3.0 9.0 1.0 9.0 4.0 6.0 10.0 10.0 2.0 10.0 10.0 4.0 0.0 6.0 9.0 1.0 5.0 10.0 3.0 0.0 7.0 1.0 4.0 9.0 10.0 3.0 4.0 3.0 0.0 1.0 2.0 5.0 2.0 5.0 9.0 7.0 1.0 4.0 8.0 5.0 1.0 6.0 4.0 2.0 9.0 3.0 
2.0 6.0 5.0 9.0 5.0 3.0 1.0 -266.0 0.0 7.0 1.0 1.0 3.0 1.0 8.0 6.0 8.0 3.0 0.0 10.0 10.0 3.0 10.0 0.0 4.0 3.0 1.0 5.0 10.0 10.0 4.0 9.0 5.0 2.0 4.0 10.0 2.0 3.0 8.0 5.0 1.0 8.0 4.0 7.0 6.0 7.0 7.0 4.0 4.0 4.0 5.0 3.0 0.0 5.0 8.0 6.0 
3.0 6.0 0.0 7.0 5.0 4.0 0.0 0.0 -255.0 1.0 6.0 7.0 9.0 4.0 9.0 6.0 5.0 6.0 0.0 7.0 4.0 5.0 4.0 4.0 4.0 9.0 0.0 5.0 8.0 5.0 6.0 7.0 5.0 2.0 3.0 7.0 6.0 2.0 2.0 3.0 6.0 9.0 9.0 4.0 2.0 7.0 1.0 2.0 10.0 3.0 10.0 4.0 3.0 2.0 3.0 4.0 
7.0 1.0 1.0 6.0 4.0 3.0 1.0 7.0 1.0 -238.0 1.0 4.0 9.0 6.0 8.0 8.0 6.0 4.0 1.0 5.0 10.0 1.0 5.0 4.0 10.0 0.0 2.0 0.0 0.0 0.0 9.0 2.0 8.0 7.0 5.0 3.0 2.0 1.0 4.0 4.0 4.0 8.0 3.0 3.0 10.0 1.0 6.0 0.0 10.0 8.0 1.0 5.0 5.0 5.0 0.0 9.0 
6.0 3.0 9.0 2.0 4.0 7.0 3.0 1.0 6.0 1.0 -290.0 6.0 2.0 1.0 7.0 9.0 10.0 9.0 7.0 5.0 8.0 8.0 1.0 10.0 9.0 5.0 8.0 5.0 2.0 7.0 9.0 0.0 6.0 10.0 4.0 1.0 1.0 1.0 6.0 2.0 7.0 0.0 1.0 8.0 6.0 4.0 6.0 5.0 8.0 8.0 3.0 6.0 6.0 9.0 9.0 3.0 
0.0 7.0 0.0 7.0 7.0 4.0 9.0 1.0 7.0 4.0 6.0 -256.0 0.0 2.0 5.0 9.0 2.0 0.0 9.0 6.0 0.0 9.0 6.0 7.0 3.0 5.0 3.0 9.0 4.0 1.0 8.0 10.0 2.0 0.0 8.0 9.0 8.0 0.0 9.0 4.0 1.0 0.0 7.0 4.0 10.0 10.0 4.0 5.0 3.0 6.0 0.0 5.0 2.0 1.0 0.0 8.0 
4.0 9.0 8.0 10.0 8.0 7.0 1.0 3.0 9.0 9.0 2.0 0.0 -267.0 0.0 1.0 2.0 2.0 0.0 9.0 6.0 6.0 9.0 4.0 2.0 0.0 8.0 7.0 0.0 7.0 8.0 3.0 7.0 0.0 7.0 5.0 2.0 0.0 4.0 9.0 0.0 8.0 6.0 2.0 8.0 0.0 7.0 3.0 4.0 4.0 3.0 7.0 9.0 4.0 7.0 10.0 7.0 
0.0 5.0 4.0 3.0 8.0 0.0 9.0 1.0 4.0 6.0 1.0 2.0 0.0 -251.0 5.0 0.0 8.0 2.0 5.0 5.0 4.0 1.0 0.0 4.0 3.0 9.0 3.0 1.0 7.0 8.0 8.0 6.0 8.0 4.0 6.0 10.0 1.0 6.0 5.0 3.0 6.0 6.0 10.0 4.0 4.0 3.0 6.0 4.0 9.0 3.0 8.0 5.0 2.0 8.0 5.0 3.0 
9.0 9.0 9.0 8.0 4.0 10.0 4.0 8.0 9.0 8.0 7.0 5.0 1.0 5.0 -322.0 2.0 1.0 1.0 9.0 8.0 1.0 9.0 4.0 6.0 4.0 1.0 7.0 3.0 2.0 10.0 9.0 10.0 7.0 8.0 2.0 1.0 8.0 9.0 9.0 1.0 9.0 10.0 6.0 4.0 8.0 5.0 3.0 8.0 9.0 1.0 4.0 7.0 1.0 0.0 10.0 9.0 
9.0 8.0 1.0 10.0 7.0 7.0 6.0 6.0 6.0 8.0 9.0 9.0 2.0 0.0 2.0 -288.0 9.0 9.0 6.0 5.0 0.0 2.0 2.0 10.0 1.0 7.0 9.0 6.0 4.0 0.0 7.0 1.0 3.0 0.0 1.0 6.0 8.0 7.0 2.0 7.0 6.0 10.0 9.0 10.0 5.0 9.0 2.0 0.0 0.0 2.0 0.0 8.0 6.0 9.0 3.0 7.0 
1.0 2.0 8.0 10.0 10.0 0.0 10.0 8.0 5.0 6.0 10.0 2.0 2.0 8.0 1.0 9.0 -293.0 1.0 5.0 1.0 4.0 2.0 0.0 4.0 9.0 5.0 8.0 9.0 2.0 3.0 8.0 10.0 8.0 9.0 7.0 7.0 2.0 5.0 5.0 10.0 6.0 0.0 1.0 6.0 2.0 3.0 10.0 5.0 1.0 3.0 6.0 9.0 2.0 9.0 6.0 8.0 
6.0 7.0 9.0 3.0 10.0 3.0 10.0 3.0 6.0 4.0 9.0 0.0 0.0 2.0 1.0 9.0 1.0 -276.0 10.0 6.0 1.0 3.0 2.0 2.0 6.0 8.0 6.0 10.0 7.0 8.0 4.0 1.0 9.0 2.0 2.0 5.0 9.0 10.0 3.0 6.0 8.0 1.0 2.0 2.0 0.0 4.0 3.0 10.0 0.0 9.0 7.0 8.0 6.0 5.0 0.0 8.0 
6.0 1.0 4.0 6.0 5.0 4.0 2.0 0.0 0.0 1.0 7.0 9.0 9.0 5.0 9.0 6.0 5.0 10.0 -261.0 1.0 10.0 9.0 6.0 9.0 9.0 2.0 7.0 8.0 3.0 2.0 2.0 0.0 5.0 4.0 0.0 4.0 9.0 1.0 0.0 5.0 1.0 7.0 8.0 3.0 6.0 10.0 4.0 0.0 3.0 5.0 4.0 4.0 1.0 7.0 5.0 8.0 
2.0 9.0 7.0 1.0 2.0 1.0 10.0 10.0 7.0 5.0 5.0 6.0 6.0 5.0 8.0 5.0 1.0 6.0 1.0 -242.0 9.0 0.0 6.0 7.0 5.0 1.0 0.0 0.0 2.0 8.0 8.0 7.0 4.0 7.0 0.0 3.0 9.0 9.0 2.0 3.0 3.0 4.0 0.0 1.0 2.0 3.0 10.0 1.0 4.0 2.0 1.0 3.0 10.0 2.0 0.0 9.0 
0.0 7.0 2.0 9.0 7.0 9.0 10.0 10.0 4.0 10.0 8.0 0.0 6.0 4.0 1.0 0.0 4.0 1.0 10.0 9.0 -270.0 2.0 3.0 6.0 10.0 1.0 5.0 0.0 0.0 7.0 4.0 8.0 2.0 1.0 7.0 3.0 8.0 2.0 8.0 1.0 5.0 2.0 10.0 1.0 7.0 9.0 9.0 0.0 6.0 10.0 7.0 10.0 3.0 1.0 0.0 1.0 
5.0 10.0 5.0 3.0 8.0 3.0 4.0 3.0 5.0 1.0 8.0 9.0 9.0 1.0 9.0 2.0 2.0 3.0 9.0 0.0 2.0 -238.0 1.0 0.0 1.0 6.0 8.0 7.0 1.0 8.0 4.0 5.0 4.0 8.0 2.0 5.0 9.0 1.0 2.0 7.0 7.0 0.0 1.0 7.0 0.0 0.0 9.0 0.0 4.0 0.0 6.0 8.0 7.0 1.0 1.0 7.0 
3.0 3.0 9.0 6.0 10.0 7.0 0.0 10.0 4.0 5.0 1.0 6.0 4.0 0.0 4.0 2.0 0.0 2.0 6.0 6.0 3.0 1.0 -296.0 3.0 10.0 6.0 7.0 8.0 10.0 3.0 3.0 8.0 8.0 1.0 7.0 9.0 2.0 4.0 10.0 10.0 6.0 10.0 9.0 6.0 1.0 9.0 5.0 5.0 3.0 7.0 8.0 6.0 0.0 5.0 10.0 5.0 
5.0 10.0 2.0 9.0 4.0 6.0 6.0 0.0 4.0 4.0 10.0 7.0 2.0 4.0 6.0 10.0 4.0 2.0 9.0 7.0 6.0 0.0 3.0 -248.0 5.0 7.0 1.0 10.0 1.0 3.0 9.0 5.0 2.0 1.0 6.0 10.0 0.0 7.0 0.0 4.0 10.0 0.0 9.0 0.0 0.0 1.0 1.0 4.0 3.0 2.0 1.0 6.0 1.0 10.0 1.0 8.0 
1.0 8.0 7.0 5.0 9.0 0.0 9.0 4.0 4.0 10.0 9.0 3.0 0.0 3.0 4.0 1.0 9.0 6.0 9.0 5.0 10.0 1.0 10.0 5.0 -265.0 9.0 0.0 10.0 4.0 3.0 1.0 5.0 3.0 2.0 6.0 2.0 6.0 5.0 3.0 7.0 1.0 2.0 6.0 0.0 10.0 1.0 7.0 3.0 6.0 3.0 6.0 0.0 3.0 6.0 4.0 9.0 
6.0 8.0 6.0 8.0 9.0 9.0 1.0 3.0 9.0 0.0 5.0 5.0 8.0 9.0 1.0 7.0 5.0 8.0 2.0 1.0 1.0 6.0 6.0 7.0 9.0 -292.0 5.0 9.0 5.0 5.0 10.0 0.0 1.0 8.0 6.0 4.0 5.0 5.0 1.0 7.0 9.0 7.0 2.0 1.0 3.0 5.0 9.0 8.0 9.0 6.0 7.0 0.0 9.0 1.0 2.0 4.0 
9.0 5.0 7.0 4.0 0.0 8.0 5.0 1.0 0.0 2.0 8.0 3.0 7.0 3.0 7.0 9.0 8.0 6.0 7.0 0.0 5.0 8.0 7.0 1.0 0.0 5.0 -255.0 7.0 9.0 3.0 9.0 0.0 2.0 9.0 5.0 3.0 9.0 2.0 8.0 7.0 6.0 5.0 5.0 0.0 0.0 3.0 9.0 0.0 6.0 2.0 7.0 5.0 5.0 0.0 0.0 4.0 
2.0 2.0 9.0 0.0 5.0 6.0 10.0 5.0 5.0 0.0 5.0 9.0 0.0 1.0 3.0 6.0 9.0 10.0 8.0 0.0 0.0 7.0 8.0 10.0 10.0 9.0 7.0 -273.0 0.0 7.0 3.0 1.0 8.0 3.0 10.0 5.0 9.0 7.0 3.0 4.0 0.0 2.0 7.0 5.0 7.0 4.0 2.0 5.0 6.0 2.0 2.0 3.0 1.0 10.0 5.0 6.0 
5.0 2.0 1.0 2.0 4.0 5.0 3.0 10.0 8.0 0.0 2.0 4.0 7.0 7.0 2.0 4.0 2.0 7.0 3.0 2.0 0.0 1.0 10.0 1.0 4.0 5.0 9.0 0.0 -230.0 5.0 8.0 4.0 2.0 0.0 0.0 10.0 5.0 6.0 6.0 2.0 6.0 5.0 0.0 9.0 7.0 0.0 4.0 5.0 3.0 1.0 7.0 6.0 7.0 8.0 0.0 4.0 
7.0 1.0 3.0 6.0 2.0 0.0 0.0 10.0 5.0 0.0 7.0 1.0 8.0 8.0 10.0 0.0 3.0 8.0 2.0 8.0 7.0 8.0 3.0 3.0 3.0 5.0 3.0 7.0 5.0 -264.0 10.0 4.0 3.0 5.0 5.0 3.0 8.0 2.0 7.0 7.0 0.0 4.0 3.0 3.0 10.0 6.0 5.0 9.0 3.0 10.0 4.0 6.0 2.0 7.0 2.0 3.0 
1.0 7.0 9.0 10.0 4.0 9.0 7.0 4.0 6.0 9.0 9.0 8.0 3.0 8.0 9.0 7.0 8.0 4.0 2.0 8.0 4.0 4.0 3.0 9.0 1.0 10.0 9.0 3.0 8.0 10.0 -321.0 1.0 6.0 9.0 6.0 4.0 8.0 6.0 4.0 0.0 8.0 3.0 5.0 8.0 6.0 2.0 8.0 2.0 7.0 6.0 6.0 0.0 8.0 1.0 8.0 6.0 
4.0 6.0 8.0 10.0 0.0 7.0 1.0 9.0 7.0 2.0 0.0 10.0 7.0 6.0 10.0 1.0 10.0 1.0 0.0 7.0 8.0 5.0 8.0 5.0 5.0 0.0 0.0 1.0 4.0 4.0 1.0 -254.0 3.0 6.0 0.0 2.0 5.0 6.0 6.0 7.0 6.0 2.0 5.0 4.0 0.0 6.0 3.0 3.0 0.0 8.0 0.0 6.0 8.0 9.0 4.0 8.0 
1.0 8.0 3.0 2.0 9.0 9.0 4.0 5.0 5.0 8.0 6.0 2.0 0.0 8.0 7.0 3.0 8.0 9.0 5.0 4.0 2.0 4.0 8.0 2.0 3.0 1.0 2.0 8.0 2.0 3.0 6.0 3.0 -252.0 1.0 6.0 6.0 0.0 6.0 8.0 4.0 0.0 0.0 3.0 7.0 0.0 4.0 7.0 4.0 10.0 8.0 1.0 7.0 8.0 9.0 3.0 0.0 
10.0 2.0 6.0 9.0 1.0 9.0 9.0 2.0 2.0 7.0 10.0 0.0 7.0 4.0 8.0 0.0 9.0 2.0 4.0 7.0 1.0 8.0 1.0 1.0 2.0 8.0 9.0 3.0 0.0 5.0 9.0 6.0 1.0 -266.0 3.0 3.0 2.0 3.0 2.0 3.0 9.0 10.0 10.0 8.0 1.0 8.0 1.0 7.0 0.0 8.0 4.0 2.0 5.0 8.0 6.0 1.0 
7.0 4.0 1.0 8.0 9.0 8.0 10.0 4.0 3.0 5.0 4.0 8.0 5.0 6.0 2.0 1.0 7.0 2.0 0.0 0.0 7.0 2.0 7.0 6.0 6.0 6.0 5.0 10.0 0.0 5.0 6.0 0.0 6.0 3.0 -276.0 8.0 0.0 8.0 10.0 2.0 0.0 7.0 6.0 10.0 7.0 9.0 10.0 5.0 2.0 2.0 7.0 4.0 8.0 0.0 4.0 4.0 
10.0 8.0 2.0 8.0 1.0 2.0 3.0 10.0 7.0 3.0 1.0 9.0 2.0 10.0 1.0 6.0 7.0 5.0 4.0 3.0 3.0 5.0 9.0 10.0 2.0 4.0 3.0 5.0 10.0 3.0 4.0 2.0 6.0 3.0 8.0 -257.0 0.0 10.0 0.0 4.0 8.0 10.0 2.0 1.0 0.0 4.0 4.0 6.0 4.0 0.0 1.0 6.0 0.0 3.0 10.0 5.0 
5.0 6.0 5.0 3.0 10.0 0.0 4.0 2.0 6.0 2.0 1.0 8.0 0.0 1.0 8.0 8.0 2.0 9.0 9.0 9.0 8.0 9.0 2.0 0.0 6.0 5.0 9.0 9.0 5.0 8.0 8.0 5.0 0.0 2.0 0.0 0.0 -291.0 6.0 6.0 6.0 8.0 9.0 10.0 2.0 2.0 10.0 9.0 0.0 6.0 8.0 5.0 8.0 7.0 5.0 3.0 7.0 
3.0 2.0 4.0 0.0 5.0 7.0 3.0 3.0 2.0 1.0 1.0 0.0 4.0 6.0 9.0 7.0 5.0 10.0 1.0 9.0 2.0 1.0 4.0 7.0 5.0 5.0 2.0 7.0 6.0 2.0 6.0 6.0 6.0 3.0 8.0 10.0 6.0 -262.0 8.0 10.0 2.0 9.0 9.0 4.0 2.0 0.0 4.0 2.0 4.0 10.0 6.0 4.0 1.0 8.0 7.0 4.0 
0.0 8.0 6.0 6.0 8.0 2.0 0.0 8.0 2.0 4.0 6.0 9.0 9.0 5.0 9.0 2.0 5.0 3.0 0.0 2.0 8.0 2.0 10.0 0.0 3.0 1.0 8.0 3.0 6.0 7.0 4.0 6.0 8.0 2.0 10.0 0.0 6.0 8.0 -283.0 10.0 7.0 8.0 5.0 10.0 10.0 1.0 2.0 7.0 8.0 2.0 3.0 6.0 5.0 1.0 5.0 7.0 
10.0 4.0 3.0 0.0 9.0 10.0 1.0 5.0 3.0 4.0 2.0 4.0 0.0 3.0 1.0 7.0 10.0 6.0 5.0 3.0 1.0 7.0 10.0 4.0 7.0 7.0 7.0 4.0 2.0 7.0 0.0 7.0 4.0 3.0 2.0 4.0 6.0 10.0 10.0 -246.0 6.0 2.0 9.0 7.0 1.0 0.0 10.0 0.0 5.0 8.0 1.0 1.0 0.0 0.0 1.0 3.0 
9.0 5.0 6.0 0.0 10.0 4.0 2.0 1.0 6.0 4.0 7.0 1.0 8.0 6.0 9.0 6.0 6.0 8.0 1.0 3.0 5.0 7.0 6.0 10.0 1.0 9.0 6.0 0.0 6.0 0.0 8.0 6.0 0.0 9.0 0.0 8.0 8.0 2.0 7.0 6.0 -289.0 9.0 3.0 0.0 5.0 9.0 0.0 9.0 9.0 6.0 7.0 7.0 5.0 3.0 8.0 3.0 
8.0 7.0 3.0 0.0 2.0 9.0 5.0 8.0 9.0 8.0 0.0 0.0 6.0 6.0 10.0 10.0 0.0 1.0 7.0 4.0 2.0 0.0 10.0 0.0 2.0 7.0 5.0 2.0 5.0 4.0 3.0 2.0 0.0 10.0 7.0 10.0 9.0 9.0 8.0 2.0 9.0 -267.0 4.0 3.0 4.0 4.0 1.0 3.0 7.0 10.0 3.0 0.0 4.0 8.0 5.0 2.0 
8.0 7.0 10.0 4.0 2.0 0.0 2.0 4.0 9.0 3.0 1.0 7.0 2.0 10.0 6.0 9.0 1.0 2.0 8.0 0.0 10.0 1.0 9.0 9.0 6.0 2.0 5.0 7.0 0.0 3.0 5.0 5.0 3.0 10.0 6.0 2.0 10.0 9.0 5.0 9.0 3.0 4.0 -293.0 6.0 10.0 6.0 0.0 9.0 6.0 10.0 6.0 8.0 6.0 1.0 6.0 1.0 
9.0 8.0 6.0 8.0 10.0 10.0 5.0 7.0 4.0 3.0 8.0 4.0 8.0 4.0 4.0 10.0 6.0 2.0 3.0 1.0 1.0 7.0 6.0 0.0 0.0 1.0 0.0 5.0 9.0 3.0 8.0 4.0 7.0 8.0 10.0 1.0 2.0 4.0 10.0 7.0 0.0 3.0 6.0 -274.0 1.0 4.0 4.0 4.0 5.0 2.0 8.0 2.0 4.0 5.0 9.0 4.0 
10.0 9.0 4.0 6.0 10.0 7.0 9.0 6.0 2.0 10.0 6.0 10.0 0.0 4.0 8.0 5.0 2.0 0.0 6.0 2.0 7.0 0.0 1.0 0.0 10.0 3.0 0.0 7.0 7.0 10.0 6.0 0.0 0.0 1.0 7.0 0.0 2.0 2.0 10.0 1.0 5.0 4.0 10.0 1.0 -257.0 2.0 10.0 0.0 0.0 8.0 6.0 5.0 0.0 8.0 3.0 5.0 
0.0 2.0 10.0 4.0 6.0 7.0 7.0 7.0 7.0 1.0 4.0 10.0 7.0 3.0 5.0 9.0 3.0 4.0 10.0 3.0 9.0 0.0 9.0 1.0 1.0 5.0 3.0 4.0 0.0 6.0 2.0 6.0 4.0 8.0 9.0 4.0 10.0 0.0 1.0 0.0 9.0 4.0 6.0 4.0 2.0 -248.0 2.0 0.0 0.0 5.0 8.0 4.0 3.0 8.0 1.0 1.0 
9.0 4.0 9.0 0.0 1.0 0.0 1.0 7.0 1.0 6.0 6.0 4.0 3.0 6.0 3.0 2.0 10.0 3.0 4.0 10.0 9.0 9.0 5.0 1.0 7.0 9.0 9.0 2.0 4.0 5.0 8.0 3.0 7.0 1.0 10.0 4.0 9.0 4.0 2.0 10.0 0.0 1.0 0.0 4.0 10.0 2.0 -270.0 1.0 1.0 7.0 8.0 10.0 5.0 10.0 2.0 2.0 
4.0 6.0 6.0 9.0 10.0 7.0 4.0 4.0 2.0 0.0 5.0 5.0 4.0 4.0 8.0 0.0 5.0 10.0 0.0 1.0 0.0 0.0 5.0 4.0 3.0 8.0 0.0 5.0 5.0 9.0 2.0 3.0 4.0 7.0 5.0 6.0 0.0 2.0 7.0 0.0 9.0 3.0 9.0 4.0 0.0 0.0 1.0 -250.0 8.0 7.0 8.0 0.0 10.0 9.0 8.0 5.0 
6.0 10.0 0.0 0.0 4.0 1.0 8.0 4.0 10.0 10.0 8.0 3.0 4.0 9.0 9.0 0.0 1.0 0.0 3.0 4.0 6.0 4.0 3.0 3.0 6.0 9.0 6.0 6.0 3.0 3.0 7.0 0.0 10.0 0.0 2.0 4.0 6.0 4.0 8.0 5.0 9.0 7.0 6.0 5.0 0.0 0.0 1.0 8.0 -255.0 3.0 8.0 0.0 4.0 7.0 0.0 8.0 
7.0 2.0 8.0 7.0 1.0 0.0 5.0 4.0 3.0 8.0 8.0 6.0 3.0 3.0 1.0 2.0 3.0 9.0 5.0 2.0 10.0 0.0 7.0 2.0 3.0 6.0 2.0 2.0 1.0 10.0 6.0 8.0 8.0 8.0 2.0 0.0 8.0 10.0 2.0 8.0 6.0 10.0 10.0 2.0 8.0 5.0 7.0 7.0 3.0 -264.0 1.0 5.0 0.0 0.0 3.0 7.0 
9.0 5.0 6.0 6.0 0.0 5.0 1.0 5.0 10.0 1.0 3.0 0.0 7.0 8.0 4.0 0.0 6.0 7.0 4.0 1.0 7.0 6.0 8.0 1.0 6.0 7.0 7.0 2.0 7.0 4.0 6.0 0.0 1.0 4.0 7.0 1.0 5.0 6.0 3.0 1.0 7.0 3.0 6.0 8.0 6.0 8.0 8.0 8.0 8.0 1.0 -262.0 9.0 0.0 1.0 5.0 7.0 
3.0 3.0 3.0 5.0 8.0 4.0 6.0 3.0 4.0 5.0 6.0 5.0 9.0 5.0 7.0 8.0 9.0 8.0 4.0 3.0 10.0 8.0 6.0 6.0 0.0 0.0 5.0 3.0 6.0 6.0 0.0 6.0 7.0 2.0 4.0 6.0 8.0 4.0 6.0 1.0 7.0 0.0 8.0 2.0 5.0 4.0 10.0 0.0 0.0 5.0 9.0 -276.0 3.0 4.0 8.0 9.0 
7.0 0.0 6.0 4.0 4.0 1.0 4.0 0.0 3.0 5.0 6.0 2.0 4.0 2.0 1.0 6.0 2.0 6.0 1.0 10.0 3.0 7.0 0.0 1.0 3.0 9.0 5.0 1.0 7.0 2.0 8.0 8.0 8.0 5.0 8.0 0.0 7.0 1.0 5.0 0.0 5.0 4.0 6.0 4.0 0.0 3.0 5.0 10.0 4.0 0.0 0.0 3.0 -218.0 7.0 3.0 2.0 
6.0 0.0 9.0 0.0 5.0 6.0 2.0 5.0 2.0 5.0 9.0 1.0 7.0 8.0 0.0 9.0 9.0 5.0 7.0 2.0 1.0 1.0 5.0 10.0 6.0 1.0 0.0 10.0 8.0 7.0 1.0 9.0 9.0 8.0 0.0 3.0 5.0 8.0 1.0 0.0 3.0 8.0 1.0 5.0 8.0 8.0 10.0 9.0 7.0 0.0 1.0 4.0 7.0 -267.0 4.0 2.0 
4.0 0.0 3.0 8.0 2.0 5.0 9.0 8.0 3.0 0.0 9.0 0.0 10.0 5.0 10.0 3.0 6.0 0.0 5.0 0.0 0.0 1.0 10.0 1.0 4.0 2.0 0.0 5.0 0.0 2.0 8.0 4.0 3.0 6.0 4.0 10.0 3.0 7.0 5.0 1.0 8.0 5.0 6.0 9.0 3.0 1.0 2.0 8.0 0.0 3.0 5.0 8.0 3.0 4.0 -237.0 6.0 
3.0 0.0 4.0 3.0 5.0 9.0 3.0 6.0 4.0 9.0 3.0 8.0 7.0 3.0 9.0 7.0 8.0 8.0 8.0 9.0 1.0 7.0 5.0 8.0 9.0 4.0 4.0 6.0 4.0 3.0 6.0 8.0 0.0 1.0 4.0 5.0 7.0 4.0 7.0 3.0 3.0 2.0 1.0 4.0 5.0 1.0 2.0 5.0 8.0 7.0 7.0 9.0 2.0 2.0 6.0 -276.0 

